
Gurobi 11.0.2 (win64) logging started Wed Jan 22 01:56:23 2025

Set parameter LogFile to value "C:\Users\yshimane3\Documents\codes\dev-julia\TelescopeTasking.jl\scripts\solutions_JASS\logs\log_MTTP4_targetS1_E2_Gurobi.log"
Set parameter Method to value 0

Gurobi 11.0.2 (win64) logging started Wed Jan 22 01:57:01 2025

Set parameter LogFile to value "C:\Users\yshimane3\Documents\codes\dev-julia\TelescopeTasking.jl\scripts\solutions_JASS\logs\log_MTTP4_targetS1_E2_Gurobi.log"
Gurobi Optimizer version 11.0.2 build v11.0.2rc0 (win64 - Windows 11.0 (22621.2))

CPU model: 12th Gen Intel(R) Core(TM) i7-12700, instruction set [SSE2|AVX|AVX2]
Thread count: 12 physical cores, 20 logical processors, using up to 20 threads

Optimize a model with 10386798 rows, 10591 columns and 20781237 nonzeros
Model fingerprint: 0x9824b1d7
Variable types: 0 continuous, 10591 integer (10591 binary)
Coefficient statistics:
  Matrix range     [1e+00, 2e+00]
  Objective range  [1e+00, 1e+00]
  Bounds range     [0e+00, 0e+00]
  RHS range        [1e+00, 2e+00]
Found heuristic solution: objective -0.0000000
Presolve removed 10335843 rows and 154 columns
Presolve time: 2.29s
Presolved: 50955 rows, 10437 columns, 109551 nonzeros
Variable types: 0 continuous, 10437 integer (10437 binary)
Found heuristic solution: objective 90.0000000

Root relaxation: objective 6.753333e+02, 6623 iterations, 0.04 seconds (0.03 work units)

    Nodes    |    Current Node    |     Objective Bounds      |     Work
 Expl Unexpl |  Obj  Depth IntInf | Incumbent    BestBd   Gap | It/Node Time

     0     0  675.33333    0  414   90.00000  675.33333   650%     -    4s
H    0     0                     543.0000000  675.33333  24.4%     -    4s
H    0     0                     588.0000000  675.33333  14.9%     -    4s
H    0     0                     591.0000000  675.33333  14.3%     -    4s
H    0     0                     592.0000000  675.33333  14.1%     -    4s
     0     0  673.00000    0  625  592.00000  673.00000  13.7%     -    4s
H    0     0                     604.0000000  673.00000  11.4%     -    4s
H    0     0                     621.0000000  673.00000  8.37%     -    4s
H    0     0                     623.0000000  673.00000  8.03%     -    5s
     0     0  673.00000    0  652  623.00000  673.00000  8.03%     -    5s
     0     0  673.00000    0  654  623.00000  673.00000  8.03%     -    5s
H    0     0                     626.0000000  673.00000  7.51%     -    5s
H    0     0                     627.0000000  673.00000  7.34%     -    6s
H    0     0                     628.0000000  673.00000  7.17%     -    6s
H    0     0                     629.0000000  673.00000  7.00%     -    6s
H    0     0                     631.0000000  673.00000  6.66%     -    6s
H    0     0                     633.0000000  673.00000  6.32%     -    6s
H    0     0                     635.0000000  673.00000  5.98%     -    6s
H    0     0                     637.0000000  673.00000  5.65%     -    6s
H    0     0                     638.0000000  673.00000  5.49%     -    6s
H    0     0                     641.0000000  673.00000  4.99%     -    6s
H    0     0                     643.0000000  673.00000  4.67%     -    6s
H    0     0                     646.0000000  673.00000  4.18%     -    6s
H    0     0                     647.0000000  673.00000  4.02%     -    6s
     0     0  673.00000    0  106  647.00000  673.00000  4.02%     -    6s
H    0     0                     652.0000000  673.00000  3.22%     -    6s
     0     0  673.00000    0  183  652.00000  673.00000  3.22%     -    6s
     0     0  673.00000    0   92  652.00000  673.00000  3.22%     -    6s
     0     0  673.00000    0  111  652.00000  673.00000  3.22%     -    6s
     0     0  673.00000    0   80  652.00000  673.00000  3.22%     -    7s
H    0     0                     653.0000000  673.00000  3.06%     -    7s
     0     0  673.00000    0  109  653.00000  673.00000  3.06%     -    7s
     0     0  673.00000    0   66  653.00000  673.00000  3.06%     -    7s
     0     0  673.00000    0  101  653.00000  673.00000  3.06%     -    7s
     0     0  673.00000    0   72  653.00000  673.00000  3.06%     -    7s
     0     0  673.00000    0   68  653.00000  673.00000  3.06%     -    8s
H    0     0                     655.0000000  673.00000  2.75%     -    8s
H    0     0                     656.0000000  673.00000  2.59%     -    8s
H    0     2                     659.0000000  673.00000  2.12%     -    8s
     0     2  673.00000    0   68  659.00000  673.00000  2.12%     -    8s
H   27    40                     663.0000000  673.00000  1.51%   714    9s
    51    64  673.00000    6  597  663.00000  673.00000  1.51%   556   10s
H   75    79                     664.0000000  673.00000  1.36%   390   10s
H   80    91                     665.0000000  673.00000  1.20%   367   10s
H  113   124                     666.0000000  673.00000  1.05%   332   11s
H  123   179                     667.0000000  673.00000  0.90%   415   12s
H  129   179                     668.0000000  673.00000  0.75%   397   12s
H  135   179                     669.0000000  673.00000  0.60%   483   12s
H  320   533                     670.0000000  673.00000  0.45%   230   13s
   532  1272  673.00000   29   73  670.00000  673.00000  0.45%   162   16s
H  547  1272                     671.0000000  673.00000  0.30%   159   16s
  2444  3000  673.00000  140   59  671.00000  673.00000  0.30%  74.9   21s
H 2609  2909                     672.0000000  673.00000  0.15%  74.5   21s
H 3056  2793                     673.0000000  673.00000  0.00%  91.7   24s

Cutting planes:
  Gomory: 160
  Cover: 616
  Clique: 54
  MIR: 4
  Flow cover: 21
  GUB cover: 38
  Zero half: 49

Explored 3064 nodes (280362 simplex iterations) in 25.16 seconds (13.25 work units)
Thread count was 20 (of 20 available processors)

Solution count 10: 673 672 671 ... 664

Optimal solution found (tolerance 1.00e-04)
Best objective 6.730000000000e+02, best bound 6.730000000000e+02, gap 0.0000%

User-callback calls 10236, time in user-callback 0.01 sec
